(declare-fun bvlambda_23_ ()Bool         )
(declare-fun a88 () (Array (_ BitVec 1) (_ BitVec 12)))
(assert
(let (($e12 (_ bv0 12)))
(let (($e15 (_ bv0 5)))
(let (($e16 (_ bv54 6)))
(let (($e108 (store a88 bvlambda_23_ $e12 )))
(let (($e194 (select $e108 true       )))
(let (($e204 (concat        $e15  bvlambda_23_)))
(let (($e208      (bvult $e204        $e16 )         ))
(let (($e211 (store a88 false      $e194)))
(let (($e212 (select $e211        $e208 )))
                  (bvult $e212 $e194)
                                                                                                                                                                                                                                                                                                                                                                                                                                                                                                                                                                                         ))  )   )         )                                                                                     )                                                                 ))  )           )
